/*********************************************
 * OPL 22.1.1.0 Data
 * Author: DELL
 * Creation Date: 4 kwi 2024 at 10:14:03
 *********************************************/
CITIES = 3; //Briston Brighton London
DEPS = 5; //A B C D E

B = [[10 15 10 20 5], [10 20 15 15 15], [0 0 0 0 0]];

C = [[0.0, 0.0, 1.0, 1.5, 0.0],
     [0.0, 0.0, 1.4, 1.2, 0.0],
     [0.0, 0.0, 0.0, 0.0, 2.0],
     [0.0, 0.0, 0.0, 0.0, 0.7],
     [0.0, 0.0, 0.0, 0.0, 0.0]];
     
D = [[5 14 13], [14 5 9], [13 9 10]];
 